language ESSENCE' 1.0

letting jobs = 102
letting horizon = 792
letting resourcesRenew = 2
letting resourcesNonrenew = 2
letting resourceLimits = [72, 73, 238, 279]
letting successors = [[2, 3, 4, 5, 6, 7, 8, 9, 10, 11, 12, 13, 14, 15, 18, 19, 20, 24, 29, 30, 37, 39], [101, 75, 63, 58, 57, 51, 49, 48, 47, 43, 42, 36, 33, 28, 26, 23, 21, 17], [100, 74, 65, 63, 54, 51, 47, 43, 34, 33, 31, 22, 16], [101, 100, 99, 98, 95, 93, 91, 74, 73, 72, 63, 61, 56, 51, 50, 47, 46, 43, 40, 38, 33, 27], [98, 75, 74, 72, 71, 69, 67, 63, 61, 57, 55, 53, 52, 46, 41, 40, 34, 32, 26], [101, 99, 95, 91, 87, 75, 73, 70, 63, 61, 59, 55, 51, 50, 48, 43, 27, 25], [100, 98, 97, 95, 93, 91, 72, 70, 69, 68, 64, 63, 61, 59, 53, 52, 43, 42, 41, 40, 38, 27], [100, 98, 96, 95, 92, 90, 89, 88, 74, 73, 72, 64, 61, 58, 57, 56, 49, 44, 34, 31], [98, 97, 95, 92, 91, 90, 88, 85, 75, 74, 73, 72, 68, 67, 64, 61, 58, 56, 54, 41, 31], [100, 99, 97, 94, 90, 89, 73, 72, 70, 68, 67, 61, 59, 57, 56, 50, 48, 36, 33, 28], [98, 96, 92, 90, 88, 70, 67, 64, 63, 58, 57, 56, 52, 48, 43, 36, 34], [98, 95, 92, 90, 88, 70, 67, 64, 56, 54, 49, 48, 47, 43, 35, 34], [98, 95, 93, 90, 88, 72, 70, 67, 64, 63, 56, 52, 49, 47, 45, 34], [100, 97, 94, 93, 92, 90, 88, 87, 72, 71, 70, 67, 64, 61, 55, 51, 50, 47, 43, 41], [98, 96, 93, 90, 84, 63, 61, 58, 53, 51, 36, 27], [99, 98, 97, 95, 94, 92, 91, 90, 88, 87, 85, 78, 69, 68, 67, 61, 57, 56, 48, 41], [98, 95, 90, 88, 87, 84, 83, 72, 67, 65, 59, 56, 52, 50, 35], [101, 100, 99, 97, 95, 93, 91, 90, 87, 86, 85, 83, 72, 68, 67, 65, 61, 41], [98, 97, 95, 75, 74, 68, 67, 63, 58, 50, 33], [98, 96, 95, 92, 88, 85, 75, 67, 58, 31], [99, 98, 97, 95, 94, 93, 89, 87, 85, 82, 72, 66, 60, 56, 50], [95, 89, 86, 85, 83, 80, 79, 75, 73, 72, 71, 69, 68, 62, 46], [91, 89, 88, 74, 73, 56, 31], [93, 91, 89, 88, 87, 79, 71, 70, 69, 65, 64, 56, 43], [90, 83, 80, 74, 72, 68, 67, 66, 47, 42], [100, 95, 94, 93, 92, 89, 88, 87, 84, 80, 79, 76, 62, 56], [94, 92, 89, 88, 85, 80, 78, 71, 67, 66, 62, 57], [96, 95, 92, 88, 85, 84, 83, 81, 79, 78, 66, 53], [101, 99, 94, 90, 88, 87, 83, 69, 67, 51], [101, 95, 93, 91, 87, 85, 79, 78, 77, 66, 64, 60], [94, 93, 87, 83, 82, 71, 70, 66, 50], [97, 90, 86, 85, 84, 83, 81, 79, 70, 66, 62], [92, 88, 87, 86, 85, 84, 83, 79, 66, 53], [99, 97, 91, 85, 84, 83, 80, 78, 68, 62], [91, 85, 78, 74, 68, 53], [91, 87, 85, 83, 81, 78, 69, 66, 62], [92, 89, 88, 84, 80, 71, 57], [94, 87, 84, 83, 80, 78, 77, 76, 67], [95, 91, 90, 87, 85, 84, 83, 80, 66], [90, 87, 84, 83, 82, 80, 79, 78, 76], [96, 89, 84, 81, 80, 79, 62], [86, 85, 84, 79, 78, 76, 62], [86, 84, 81, 80, 78, 77, 66], [86, 84, 81, 80, 78, 77, 67], [83, 79, 77, 66, 59], [97, 90, 88, 84, 82, 77, 76], [96, 85, 84, 76, 62], [93, 83, 79, 77, 66], [91, 87, 86, 83, 79], [81, 79, 78, 69], [80, 78, 77, 68], [94, 85, 81, 73], [80, 76, 62], [89, 86, 81, 76], [85, 79, 78, 76], [86, 81, 77], [82, 81, 76], [86, 78, 76], [82, 78, 76], [92, 83, 80], [62], [82, 77], [89, 78], [83, 76], [66], [76], [79], [81], [76], [80], [77], [78], [77], [79], [76], [102], [102], [102], [102], [102], [102], [102], [102], [102], [102], [102], [102], [102], [102], [102], [102], [102], [102], [102], [102], [102], [102], [102], [102], [102], [102], []]
letting durations = [[0], [5, 7, 7], [3, 6, 10], [5, 6, 9], [2, 7, 8], [3, 6, 6], [1, 2, 10], [2, 2, 3], [3, 4, 10], [1, 6, 7], [1, 7, 9], [4, 5, 10], [3, 9, 10], [1, 4, 10], [4, 5, 6], [4, 5, 9], [3, 4, 9], [3, 9, 10], [7, 9, 10], [1, 2, 9], [3, 3, 10], [1, 4, 5], [2, 3, 10], [4, 8, 10], [3, 6, 9], [6, 7, 10], [2, 3, 7], [1, 3, 8], [2, 4, 5], [5, 6, 10], [1, 4, 6], [2, 9, 10], [5, 5, 9], [3, 5, 7], [2, 2, 6], [1, 4, 8], [3, 6, 7], [1, 5, 9], [4, 7, 10], [2, 6, 10], [4, 5, 10], [7, 8, 9], [4, 6, 8], [3, 3, 5], [5, 8, 9], [2, 4, 6], [4, 6, 6], [1, 4, 6], [3, 6, 7], [3, 5, 10], [8, 9, 9], [2, 6, 6], [1, 8, 9], [3, 6, 7], [1, 2, 4], [1, 2, 8], [1, 8, 9], [6, 6, 8], [1, 2, 9], [1, 6, 9], [1, 3, 9], [5, 7, 8], [4, 9, 9], [1, 7, 7], [2, 4, 6], [2, 2, 7], [1, 8, 9], [2, 6, 7], [1, 1, 10], [3, 6, 8], [5, 5, 9], [5, 6, 7], [2, 5, 7], [4, 6, 10], [3, 5, 7], [2, 6, 6], [8, 9, 10], [4, 7, 7], [2, 5, 9], [2, 2, 3], [2, 3, 5], [3, 3, 7], [1, 3, 5], [1, 3, 3], [6, 6, 9], [1, 4, 5], [2, 6, 10], [5, 9, 10], [2, 6, 6], [6, 7, 7], [3, 4, 7], [2, 3, 9], [3, 3, 10], [2, 4, 9], [2, 7, 8], [1, 2, 3], [7, 10, 10], [1, 4, 6], [3, 4, 9], [1, 2, 7], [6, 9, 10], [0]]
letting resourceUsage = [[[0, 0, 0, 0]], [[0, 6, 0, 9], [0, 5, 0, 9], [0, 3, 9, 0]], [[0, 4, 6, 0], [3, 0, 5, 0], [0, 3, 0, 7]], [[0, 8, 8, 0], [0, 8, 7, 0], [8, 0, 0, 1]], [[0, 8, 10, 0], [0, 8, 9, 0], [0, 8, 8, 0]], [[9, 0, 0, 6], [8, 0, 0, 5], [0, 4, 0, 5]], [[9, 0, 3, 0], [0, 5, 3, 0], [2, 0, 1, 0]], [[0, 2, 7, 0], [4, 0, 5, 0], [0, 1, 0, 7]], [[4, 0, 0, 8], [2, 0, 0, 6], [0, 3, 0, 4]], [[0, 7, 0, 4], [0, 7, 0, 3], [1, 0, 0, 2]], [[0, 4, 8, 0], [4, 0, 0, 2], [1, 0, 4, 0]], [[7, 0, 6, 0], [0, 6, 4, 0], [0, 4, 3, 0]], [[0, 10, 9, 0], [6, 0, 0, 2], [0, 2, 0, 1]], [[0, 8, 9, 0], [0, 3, 9, 0], [0, 1, 9, 0]], [[0, 6, 0, 9], [3, 0, 0, 8], [1, 0, 0, 8]], [[0, 7, 0, 6], [0, 5, 0, 3], [0, 3, 5, 0]], [[5, 0, 0, 3], [0, 8, 0, 3], [0, 6, 0, 3]], [[0, 9, 0, 9], [4, 0, 0, 8], [4, 0, 5, 0]], [[0, 7, 0, 6], [7, 0, 0, 6], [4, 0, 0, 3]], [[0, 7, 10, 0], [0, 5, 8, 0], [3, 0, 8, 0]], [[0, 2, 7, 0], [4, 0, 0, 6], [3, 0, 0, 3]], [[5, 0, 8, 0], [5, 0, 0, 4], [0, 6, 0, 4]], [[0, 7, 0, 4], [4, 0, 3, 0], [4, 0, 2, 0]], [[6, 0, 0, 7], [6, 0, 1, 0], [0, 2, 1, 0]], [[0, 7, 0, 5], [0, 3, 6, 0], [3, 0, 0, 3]], [[0, 8, 0, 5], [5, 0, 0, 3], [0, 5, 4, 0]], [[0, 9, 0, 5], [5, 0, 0, 4], [0, 4, 0, 4]], [[4, 0, 0, 4], [3, 0, 0, 4], [3, 0, 6, 0]], [[0, 7, 5, 0], [0, 4, 5, 0], [8, 0, 0, 4]], [[0, 7, 0, 9], [0, 7, 0, 8], [0, 7, 0, 7]], [[3, 0, 0, 7], [0, 5, 8, 0], [1, 0, 7, 0]], [[0, 5, 6, 0], [8, 0, 0, 3], [0, 5, 1, 0]], [[0, 5, 7, 0], [6, 0, 6, 0], [6, 0, 5, 0]], [[3, 0, 0, 10], [0, 4, 1, 0], [1, 0, 0, 9]], [[7, 0, 0, 1], [5, 0, 4, 0], [0, 6, 0, 1]], [[3, 0, 8, 0], [0, 6, 6, 0], [2, 0, 0, 6]], [[4, 0, 0, 5], [3, 0, 3, 0], [0, 8, 3, 0]], [[0, 3, 0, 3], [7, 0, 0, 3], [4, 0, 0, 1]], [[7, 0, 6, 0], [0, 1, 0, 3], [0, 1, 0, 2]], [[4, 0, 0, 8], [0, 4, 0, 7], [0, 3, 0, 7]], [[0, 5, 0, 8], [0, 5, 0, 3], [0, 5, 0, 2]], [[9, 0, 0, 9], [8, 0, 4, 0], [7, 0, 0, 5]], [[0, 10, 0, 2], [6, 0, 0, 2], [6, 0, 0, 1]], [[0, 7, 6, 0], [3, 0, 0, 4], [0, 1, 0, 4]], [[0, 7, 3, 0], [0, 6, 2, 0], [0, 5, 2, 0]], [[9, 0, 0, 6], [0, 5, 0, 5], [0, 3, 0, 3]], [[7, 0, 0, 1], [0, 5, 5, 0], [0, 2, 0, 1]], [[0, 8, 5, 0], [0, 5, 0, 7], [0, 4, 3, 0]], [[0, 8, 0, 6], [0, 5, 9, 0], [5, 0, 0, 6]], [[0, 8, 4, 0], [8, 0, 0, 4], [7, 0, 3, 0]], [[10, 0, 4, 0], [0, 6, 4, 0], [8, 0, 4, 0]], [[0, 7, 0, 4], [1, 0, 6, 0], [1, 0, 0, 4]], [[0, 4, 0, 7], [0, 3, 0, 7], [0, 2, 0, 3]], [[0, 6, 0, 3], [0, 5, 6, 0], [0, 2, 6, 0]], [[0, 3, 0, 6], [0, 2, 0, 4], [3, 0, 0, 3]], [[3, 0, 5, 0], [3, 0, 0, 7], [0, 8, 0, 7]], [[6, 0, 0, 4], [5, 0, 0, 4], [0, 5, 0, 4]], [[9, 0, 3, 0], [0, 3, 2, 0], [0, 2, 0, 4]], [[7, 0, 8, 0], [0, 2, 8, 0], [6, 0, 0, 2]], [[8, 0, 0, 8], [5, 0, 3, 0], [4, 0, 2, 0]], [[0, 6, 0, 7], [0, 6, 8, 0], [5, 0, 0, 6]], [[0, 8, 5, 0], [2, 0, 5, 0], [0, 2, 5, 0]], [[0, 5, 3, 0], [0, 3, 3, 0], [2, 0, 1, 0]], [[0, 6, 0, 9], [0, 5, 0, 8], [0, 1, 2, 0]], [[0, 8, 0, 8], [5, 0, 0, 8], [5, 0, 0, 5]], [[0, 4, 0, 4], [2, 0, 5, 0], [2, 0, 4, 0]], [[0, 10, 0, 6], [5, 0, 0, 5], [0, 8, 6, 0]], [[0, 10, 0, 3], [3, 0, 0, 3], [0, 10, 1, 0]], [[1, 0, 0, 8], [0, 5, 0, 8], [1, 0, 1, 0]], [[0, 9, 0, 4], [6, 0, 0, 4], [5, 0, 0, 3]], [[7, 0, 0, 4], [0, 7, 0, 2], [0, 6, 0, 2]], [[0, 3, 8, 0], [0, 3, 0, 7], [2, 0, 3, 0]], [[6, 0, 8, 0], [6, 0, 6, 0], [0, 10, 6, 0]], [[3, 0, 0, 9], [2, 0, 0, 9], [0, 5, 4, 0]], [[2, 0, 0, 5], [0, 2, 9, 0], [0, 2, 7, 0]], [[0, 7, 0, 1], [2, 0, 0, 1], [0, 5, 4, 0]], [[9, 0, 6, 0], [7, 0, 0, 5], [1, 0, 0, 5]], [[0, 10, 4, 0], [4, 0, 3, 0], [0, 10, 0, 2]], [[1, 0, 9, 0], [1, 0, 6, 0], [0, 1, 5, 0]], [[0, 7, 0, 7], [6, 0, 0, 7], [3, 0, 0, 7]], [[8, 0, 0, 5], [0, 6, 0, 5], [6, 0, 3, 0]], [[3, 0, 0, 4], [0, 6, 0, 2], [0, 3, 0, 1]], [[3, 0, 0, 7], [2, 0, 0, 6], [0, 4, 0, 3]], [[0, 6, 0, 5], [5, 0, 7, 0], [0, 3, 6, 0]], [[6, 0, 7, 0], [6, 0, 0, 5], [4, 0, 3, 0]], [[0, 7, 0, 9], [0, 7, 0, 8], [0, 7, 0, 7]], [[0, 3, 0, 7], [0, 2, 0, 7], [0, 2, 0, 2]], [[0, 3, 8, 0], [7, 0, 8, 0], [6, 0, 8, 0]], [[5, 0, 10, 0], [4, 0, 9, 0], [0, 9, 0, 6]], [[0, 5, 0, 3], [0, 5, 7, 0], [9, 0, 0, 1]], [[3, 0, 0, 5], [3, 0, 0, 4], [0, 7, 0, 4]], [[1, 0, 2, 0], [0, 2, 0, 4], [1, 0, 1, 0]], [[0, 6, 6, 0], [0, 5, 0, 4], [0, 1, 0, 2]], [[0, 6, 0, 6], [4, 0, 0, 5], [2, 0, 3, 0]], [[2, 0, 7, 0], [2, 0, 5, 0], [0, 3, 3, 0]], [[0, 2, 0, 7], [0, 2, 0, 6], [0, 2, 3, 0]], [[3, 0, 7, 0], [0, 6, 0, 4], [0, 4, 5, 0]], [[8, 0, 8, 0], [0, 5, 0, 4], [6, 0, 4, 0]], [[0, 3, 0, 5], [0, 3, 0, 4], [4, 0, 0, 4]], [[0, 5, 0, 3], [0, 4, 0, 1], [5, 0, 0, 1]], [[0, 7, 0, 3], [0, 5, 0, 2], [3, 0, 0, 2]], [[0, 0, 0, 0]]]
